Route #1: 54 87 72 102 111 34 27 11 56 1 24 37 35 92 6 40 62 112 71 96 107
Route #2: 50 52 38 29 80 16 93 84 94 10 119 61 116 20
Route #3: 55 70 39 78 8 53 81 69 68 60 95 4 22 59 100 77 57 90 114 3 45
Route #4: 31 25 30 118 23 14 58 83 28 7 106 110 74 65 86 48 115 36 33 67 73
Route #5: 79 15 19 97 46 66 108 117 26 5 47 101 105 104 63 51 89 85 41 82 109
Route #6: 49 42 43 76 113 64 98 13 103 17 75 18 44 9 99 2 12 21 91 32 88
